1 1 2 0
1 -3 0
1 -4 5 0
1 -6 0
1 -4 7 0
1 8 0
1 4 -2 0
1 5 0
1 9 10 0
1 -11 12 0
1 13 0
1 4 11 0
1 -9 -8 0
1 14 9 0
1 10 0
1 -12 15 0
1 16 9 0
1 4 -17 0
1 12 -11 0
1 18 0
1 -4 19 0
1 -20 -7 0
1 21 16 0
1 22 0
1 23 -24 0
1 -21 0
1 -12 16 0
1 -17 5 0
1 -25 -2 0
1 17 4 0
1 5 4 0
1 -2 -16 0
1 26 0
1 -16 10 0
1 -2 -4 0
1 18 -11 0
1 10 16 0
1 -27 0
1 28 0
1 -16 2 0
1 -29 2 0
1 -12 -4 0
1 4 -13 0
1 -9 4 0
1 -9 -1 0
1 9 30 0
1 -14 0
1 -21 -16 0
1 11 3 0
1 -31 0
1 12 32 0
1 -17 16 0
1 -29 0
1 -2 12 0
1 -19 -21 0
1 -25 -33 0
1 -34 0
1 -16 34 0
1 9 -25 0
1 12 -16 0
1 -35 9 0
1 35 0
1 -16 -7 0
1 11 2 0
1 30 0
1 -22 -12 0
1 11 -16 0
1 12 -19 0
1 -23 0
1 -28 -2 0
1 -2 -12 0
1 -33 12 0
1 -1 -22 0
1 -15 -16 0
1 -36 0
1 -34 4 0
1 -4 12 0
1 2 -35 0
1 12 -37 0
1 24 1 0
1 -38 0
1 9 4 0
1 -12 21 0
1 -20 34 0
1 -7 0
1 2 4 0
1 33 0
1 2 -9 0
1 16 -10 0
1 30 -25 0
1 9 0
1 -16 0
1 -22 16 0
1 -39 0
1 -4 -2 0
1 12 36 0
1 4 2 0
1 -9 14 0
1 -36 -16 0
1 -16 -39 0
1 17 21 0
1 -38 -4 0
1 16 -9 0
1 11 0
1 19 0
1 -16 -9 0
1 -1 -12 0
1 9 20 0
1 4 -24 0
1 -27 4 0
1 9 -7 0
1 -11 -9 0
1 16 12 0
1 12 29 0
1 -2 4 0
1 -2 11 0
1 -16 11 0
1 -2 -34 0
1 7 39 0
1 24 9 0
1 -12 -11 0
1 27 5 0
1 -9 23 0
1 -30 -4 0
1 -2 1 0
1 -4 23 0
1 -11 -2 0
1 9 -12 0
1 2 -23 0
1 33 30 0
1 11 39 0
1 17 3 0
1 -12 -16 0
1 -13 -11 0
1 11 12 0
1 -28 12 0
1 -36 9 0
1 23 -4 0
1 2 -29 0
1 -2 -12 -16 0
1 31 12 0
1 -11 2 0
1 38 -1 0
1 -11 -12 0
1 2 0
1 -32 -35 0
1 12 10 0
1 -38 16 0
1 4 21 0
1 -9 -12 0
1 11 16 0
1 29 -36 0
1 -4 -19 0
1 -16 -35 0
1 30 -9 0
1 2 22 0
1 28 -16 0
1 10 -12 0
1 11 9 0
1 -11 -37 0
1 11 8 0
1 -9 12 0
1 36 11 0
1 -12 27 0
1 12 2 0
1 26 -25 0
1 -16 -13 0
1 -9 -16 0
1 -2 -9 0
1 -14 -12 0
1 34 2 0
1 -4 9 0
1 33 -16 0
1 -39 -8 0
1 -32 -16 0
1 -2 15 0
1 4 0
1 12 -14 0
1 -16 28 0
1 -12 35 0
1 12 11 0
1 32 0
1 -12 -9 0
1 11 21 0
1 -4 -6 0
1 -25 0
1 17 -2 0
1 -16 4 0
1 -2 3 0
1 -8 -9 0
1 -14 -9 0
1 4 6 0
1 -16 15 0
1 5 12 0
1 -23 -16 0
1 -32 11 0
1 16 -39 0
1 32 -20 0
1 -17 18 0
1 -8 -19 0
1 1 -7 0
1 -14 -4 0
1 9 -6 0
1 -30 9 0
1 -22 9 0
1 12 0
1 4 16 0
1 -17 -1 0
1 -16 12 0
1 5 11 0
1 12 27 0
1 -9 2 0
1 9 16 0
1 -39 14 0
1 -9 -37 0
1 -39 -5 0
1 37 -27 0
1 -1 0
1 -9 11 0
1 -20 0
1 -24 0
1 -30 -26 0
1 -12 9 0
1 -22 4 0
1 -11 -34 0
1 -4 -33 0
1 38 12 0
1 -32 1 0
1 11 1 0
1 -18 -16 0
1 -17 0
1 -15 0
1 -12 6 0
1 9 -15 0
1 36 12 0
1 -2 9 0
1 2 -16 0
1 -2 -29 0
1 16 -25 0
1 -11 9 0
1 21 -33 0
1 -7 21 0
1 12 -15 0
1 -4 -16 0
1 17 8 0
1 16 -4 0
1 -37 0
1 16 -12 0
1 -9 -28 0
1 25 10 0
1 12 34 0
1 12 9 0
1 -7 -30 0
1 9 21 0
1 9 2 0
1 8 -11 0
1 2 -4 0
h -27 12 -40 0
h 40 0
